proyfinal/src/viki/013/experimentInOfficeAgust.take6.output/650ac3c5-c5e8-4fd4-8fbe-9db3a3424533.als.dat
{'cnf.clauses': '118081',
 'cnf.totvars': '69608',
 'conflict literals': '1',
 'conflicts': '2',
 'decisions': '14',
 'memused.mb': '16.13',
 'outcome': 'UNSAT',
 'propagations': '19242',
 'restarts': '1',
 'solver.msecs': 33,
 'task.msecs': 90}
