proyfinal/src/viki/013/experimentInOfficeAgust.take6.output/650ac3c5-c5e8-4fd4-8fbe-9db3a3424533.als.out
Reading from standard input... Use '--help' for help.
============================[ Problem Statistics ]=============================
|                                                                             |
|  Number of variables:         69608                                         |
|  Number of clauses:          118081                                         |
|  Parse time:                   0.03 s                                       |
|                                                                             |
============================[ Search Statistics ]==============================
| Conflicts |          ORIGINAL         |          LEARNT          | Progress |
|           |    Vars  Clauses Literals |    Limit  Clauses Lit/Cl |          |
===============================================================================
===============================================================================
restarts              : 1
conflicts             : 2              (60 /sec)
decisions             : 14             (0.00 % random) (418 /sec)
propagations          : 19242          (574285 /sec)
conflict literals     : 1              (0.00 % deleted)
Memory used           : 16.13 MB
CPU time              : 0.033506 s

UNSATISFIABLE
